14,1	0,0	10,6	9,9	0,0	0,0	0,0	0,0	0,0	15,5
18,8	19,1	0,0	9,2	5,1	0,0	0,0	15,6	0,0	0,0
0,0	0,0	6,6	0,0	5,9	5,9	0,0	0,0	14,7	0,0
15,3	0,0	13,3	0,0	0,0	0,0	13,3	0,0	0,0	0,0
0,0	5,1	0,0	19,0	7,5	0,0	0,0	12,3	0,0	0,0
0,0	11,9	14,5	0,0	19,1	10,7	0,0	0,0	7,8	0,0
0,0	9,2	0,0	19,4	0,0	0,0	5,2	0,0	0,0	8,5
11,4	0,0	9,5	0,0	0,0	0,0	0,0	0,0	0,0	13,4
0,0	7,6	0,0	16,1	11,8	0,0	0,0	11,1	0,0	0,0
0,0	0,0	9,7	0,0	0,0	7,0	19,9	0,0	0,0	11,0
									
2,6	5,0	4,0	5,0	4,3	3,0	4,0	3,6	3,4	2,7
